7016
6807
6993
6960
6869
7054
6883
7031
6947
7038
6976
7102
6857
6868
6941
7016
6968
7081
6971
6965
7009
6900
7027
6995
7049
7037
7069
6942
6946
7029
6969
7010
6941
6991
6947
7128
6994
6840
6872
6936
7028
7026
6864
6919
6955
7040
6872
6985
6865
6970
7060
6921
6904
6913
6969
6919
7063
7057
6965
6864
6982
6903
6785
6891
6854
7010
7038
7096
6997
7039
7063
6960
6992
6855
6958
6995
7048
6960
6977
7049
7103
6944
7006
7112
6858
7078
7082
6832
6882
6972
6893
6958
6905
6927
6839
7006
7100
6924
7128
7007
